c generated by sgen
p cnf 81 172
-2 -3 -4 0
-1 -3 -4 0
-1 -2 -4 0
-1 -2 -3 0
-6 -7 -8 0
-5 -7 -8 0
-5 -6 -8 0
-5 -6 -7 0
-10 -11 -12 0
-9 -11 -12 0
-9 -10 -12 0
-9 -10 -11 0
-14 -15 -16 0
-13 -15 -16 0
-13 -14 -16 0
-13 -14 -15 0
-18 -19 -20 0
-17 -19 -20 0
-17 -18 -20 0
-17 -18 -19 0
-22 -23 -24 0
-21 -23 -24 0
-21 -22 -24 0
-21 -22 -23 0
-26 -27 -28 0
-25 -27 -28 0
-25 -26 -28 0
-25 -26 -27 0
-30 -31 -32 0
-29 -31 -32 0
-29 -30 -32 0
-29 -30 -31 0
-34 -35 -36 0
-33 -35 -36 0
-33 -34 -36 0
-33 -34 -35 0
-38 -39 -40 0
-37 -39 -40 0
-37 -38 -40 0
-37 -38 -39 0
-42 -43 -44 0
-41 -43 -44 0
-41 -42 -44 0
-41 -42 -43 0
-46 -47 -48 0
-45 -47 -48 0
-45 -46 -48 0
-45 -46 -47 0
-50 -51 -52 0
-49 -51 -52 0
-49 -50 -52 0
-49 -50 -51 0
-54 -55 -56 0
-53 -55 -56 0
-53 -54 -56 0
-53 -54 -55 0
-58 -59 -60 0
-57 -59 -60 0
-57 -58 -60 0
-57 -58 -59 0
-62 -63 -64 0
-61 -63 -64 0
-61 -62 -64 0
-61 -62 -63 0
-66 -67 -68 0
-65 -67 -68 0
-65 -66 -68 0
-65 -66 -67 0
-70 -71 -72 0
-69 -71 -72 0
-69 -70 -72 0
-69 -70 -71 0
-74 -75 -76 0
-73 -75 -76 0
-73 -74 -76 0
-73 -74 -75 0
-77 -78 -79 0
-77 -78 -80 0
-77 -78 -81 0
-77 -79 -80 0
-77 -79 -81 0
-77 -80 -81 0
-78 -79 -80 0
-78 -79 -81 0
-78 -80 -81 0
-79 -80 -81 0
52 21 17 0
28 21 17 0
28 52 17 0
28 52 21 0
51 74 10 0
45 74 10 0
45 51 10 0
45 51 74 0
57 79 18 0
11 79 18 0
11 57 18 0
11 57 79 0
34 68 46 0
26 68 46 0
26 34 46 0
26 34 68 0
56 75 60 0
41 75 60 0
41 56 60 0
41 56 75 0
27 72 42 0
32 72 42 0
32 27 42 0
32 27 72 0
39 53 14 0
81 53 14 0
81 39 14 0
81 39 53 0
7 22 30 0
61 22 30 0
61 7 30 0
61 7 22 0
23 1 73 0
40 1 73 0
40 23 73 0
40 23 1 0
20 76 31 0
13 76 31 0
13 20 31 0
13 20 76 0
5 77 70 0
47 77 70 0
47 5 70 0
47 5 77 0
62 59 49 0
48 59 49 0
48 62 49 0
48 62 59 0
33 12 44 0
2 12 44 0
2 33 44 0
2 33 12 0
54 29 36 0
50 29 36 0
50 54 36 0
50 54 29 0
6 15 4 0
58 15 4 0
58 6 4 0
58 6 15 0
71 55 65 0
78 55 65 0
78 71 65 0
78 71 55 0
9 16 67 0
24 16 67 0
24 9 67 0
24 9 16 0
64 37 69 0
35 37 69 0
35 64 69 0
35 64 37 0
3 63 25 0
80 63 25 0
80 3 25 0
80 3 63 0
8 19 43 0
8 19 66 0
8 19 38 0
8 43 66 0
8 43 38 0
8 66 38 0
19 43 66 0
19 43 38 0
19 66 38 0
43 66 38 0
